36
50
4497
413
99
6253
32
746
300
71
3138
176
375
0
421
0
92
1946
545
732
42
18
0
236
25
38
453
1229
863
754
314
2243
212
115
129
2807
46
73
67
312
59
199
116
2216
1365
559
1865
73
1219
2247
2937
507
0
2943
378
653
0
449
205
116
1242
28
66
76
1315
4898
72
60
92
190
1984
106
142
429
98
4465
2909
2198
69
1009
1297
7796
3015
4223
2027
1325
582
304
60
761
350
0
333
47
6235
41
1360
34
47
287
